NAME: board1
DIMENSION: 20
TYPE: TSP
EDGE_WEIGHT_TYPE: EUC_2D
NODE_COORD_SECTION
1 0.0 16.0
2 0.0 8.0
3 12.0 0.0
4 12.0 16.0
5 0.0 0.0
6 16.0 8.0
7 8.0 16.0
8 16.0 4.0
9 8.0 4.0
10 12.0 8.0
11 8.0 0.0
12 8.0 8.0
13 4.0 12.0
14 0.0 4.0
15 16.0 16.0
16 4.0 8.0
17 16.0 12.0
18 12.0 4.0
19 8.0 12.0
20 16.0 0.0
EOF